% File represents an instance of a Composite Structure problem to be solved by a CP framework
% Created on 2025-03-25 14:06:11.701
T = 44;
n = 16;
m = 24;
edges = [(1, 2),
(5, 6),
(9, 10),
(13, 14),
(2, 3),
(7, 6),
(10, 11),
(14, 15),
(4, 3),
(8, 7),
(12, 11),
(15, 16),
(1, 5),
(5, 9),
(13, 9),
(2, 6),
(6, 10),
(14, 10),
(3, 7),
(7, 11),
(15, 11),
(4, 8),
(8, 12),
(12, 16)];
counts = [|12, 10, 8, 14,
|10, 10, 6, 14,
|10, 8, 6, 10,
|10, 8, 10, 16,
|12, 8, 6, 12,
|6, 8, 6, 10,
|8, 8, 6, 10,
|8, 8, 6, 16,
|6, 8, 4, 10,
|6, 4, 4, 10,
|6, 2, 4, 10,
|8, 2, 6, 14,
|14, 8, 4, 10,
|10, 8, 4, 10,
|10, 4, 4, 10,
|8, 2, 2, 10|];
